NAME: cuum890.tsp
TYPE: TSP
COMMENT: User-generated TSP file
DIMENSION: 890
EDGE_WEIGHT_TYPE: EUC_2D
NODE_COORD_SECTION
1 444.0 799.0
2 42.0 791.0
3 38.0 552.0
4 150.0 834.0
5 696.0 674.0
6 627.0 703.0
7 285.0 502.0
8 844.0 786.0
9 560.0 753.0
10 624.0 760.0
11 10.0 336.0
12 433.0 471.0
13 795.0 880.0
14 583.0 876.0
15 424.0 635.0
16 169.0 182.0
17 403.0 830.0
18 403.0 361.0
19 642.0 363.0
20 313.0 663.0
21 789.0 661.0
22 536.0 79.0
23 250.0 214.0
24 818.0 451.0
25 81.0 4.0
26 305.0 14.0
27 631.0 662.0
28 866.0 95.0
29 466.0 540.0
30 437.0 410.0
31 56.0 742.0
32 500.0 431.0
33 10.0 532.0
34 49.0 113.0
35 562.0 552.0
36 838.0 240.0
37 807.0 22.0
38 287.0 406.0
39 369.0 115.0
40 356.0 322.0
41 630.0 364.0
42 659.0 342.0
43 185.0 172.0
44 708.0 259.0
45 101.0 446.0
46 531.0 464.0
47 110.0 659.0
48 156.0 197.0
49 419.0 211.0
50 814.0 28.0
51 427.0 801.0
52 643.0 474.0
53 672.0 339.0
54 166.0 617.0
55 278.0 464.0
56 350.0 526.0
57 342.0 252.0
58 260.0 287.0
59 470.0 600.0
60 279.0 470.0
61 886.0 673.0
62 831.0 316.0
63 843.0 15.0
64 60.0 567.0
65 866.0 626.0
66 204.0 790.0
67 413.0 336.0
68 348.0 831.0
69 566.0 694.0
70 294.0 740.0
71 216.0 617.0
72 304.0 296.0
73 423.0 52.0
74 447.0 401.0
75 767.0 861.0
76 870.0 648.0
77 244.0 829.0
78 579.0 255.0
79 532.0 77.0
80 883.0 527.0
81 353.0 25.0
82 823.0 466.0
83 308.0 191.0
84 171.0 799.0
85 458.0 581.0
86 401.0 371.0
87 719.0 118.0
88 764.0 655.0
89 351.0 405.0
90 798.0 78.0
91 450.0 674.0
92 305.0 528.0
93 539.0 158.0
94 81.0 578.0
95 578.0 206.0
96 528.0 575.0
97 608.0 435.0
98 739.0 881.0
99 875.0 30.0
100 394.0 802.0
101 456.0 865.0
102 832.0 340.0
103 334.0 86.0
104 1.0 877.0
105 840.0 712.0
106 148.0 646.0
107 496.0 519.0
108 371.0 390.0
109 652.0 291.0
110 559.0 741.0
111 297.0 695.0
112 525.0 125.0
113 68.0 371.0
114 14.0 678.0
115 407.0 469.0
116 507.0 30.0
117 2.0 580.0
118 205.0 135.0
119 606.0 577.0
120 53.0 607.0
121 5.0 73.0
122 352.0 877.0
123 288.0 777.0
124 632.0 431.0
125 252.0 733.0
126 750.0 113.0
127 625.0 59.0
128 256.0 181.0
129 343.0 240.0
130 328.0 220.0
131 109.0 506.0
132 608.0 441.0
133 150.0 194.0
134 637.0 75.0
135 780.0 556.0
136 220.0 881.0
137 289.0 621.0
138 525.0 184.0
139 438.0 199.0
140 468.0 334.0
141 724.0 112.0
142 276.0 136.0
143 711.0 653.0
144 52.0 383.0
145 512.0 232.0
146 374.0 854.0
147 18.0 724.0
148 791.0 70.0
149 438.0 397.0
150 636.0 59.0
151 87.0 306.0
152 741.0 747.0
153 314.0 257.0
154 574.0 199.0
155 840.0 455.0
156 440.0 854.0
157 327.0 2.0
158 271.0 837.0
159 552.0 788.0
160 414.0 362.0
161 510.0 857.0
162 16.0 555.0
163 569.0 444.0
164 64.0 510.0
165 754.0 377.0
166 280.0 7.0
167 717.0 250.0
168 712.0 630.0
169 291.0 499.0
170 67.0 455.0
171 303.0 685.0
172 664.0 265.0
173 835.0 389.0
174 572.0 878.0
175 401.0 343.0
176 304.0 591.0
177 598.0 327.0
178 515.0 761.0
179 460.0 763.0
180 865.0 118.0
181 107.0 343.0
182 760.0 250.0
183 85.0 464.0
184 888.0 403.0
185 274.0 494.0
186 540.0 85.0
187 731.0 240.0
188 827.0 682.0
189 765.0 623.0
190 439.0 420.0
191 754.0 528.0
192 127.0 39.0
193 190.0 344.0
194 167.0 704.0
195 821.0 316.0
196 650.0 356.0
197 12.0 515.0
198 540.0 569.0
199 407.0 651.0
200 874.0 816.0
201 867.0 378.0
202 634.0 9.0
203 296.0 880.0
204 254.0 853.0
205 153.0 539.0
206 124.0 453.0
207 428.0 50.0
208 157.0 808.0
209 402.0 604.0
210 445.0 190.0
211 178.0 311.0
212 114.0 514.0
213 553.0 33.0
214 357.0 48.0
215 543.0 198.0
216 318.0 376.0
217 458.0 516.0
218 113.0 555.0
219 890.0 87.0
220 511.0 488.0
221 338.0 747.0
222 75.0 604.0
223 66.0 631.0
224 430.0 654.0
225 343.0 30.0
226 676.0 379.0
227 442.0 35.0
228 407.0 14.0
229 198.0 27.0
230 477.0 486.0
231 693.0 547.0
232 321.0 595.0
233 811.0 821.0
234 384.0 14.0
235 307.0 437.0
236 205.0 735.0
237 670.0 854.0
238 545.0 449.0
239 666.0 817.0
240 779.0 545.0
241 484.0 789.0
242 472.0 175.0
243 690.0 838.0
244 875.0 526.0
245 287.0 108.0
246 860.0 241.0
247 444.0 347.0
248 341.0 830.0
249 141.0 9.0
250 113.0 60.0
251 253.0 678.0
252 525.0 228.0
253 574.0 724.0
254 139.0 225.0
255 717.0 328.0
256 178.0 608.0
257 170.0 587.0
258 734.0 26.0
259 84.0 797.0
260 722.0 83.0
261 869.0 827.0
262 754.0 355.0
263 17.0 772.0
264 447.0 438.0
265 762.0 412.0
266 275.0 543.0
267 529.0 807.0
268 33.0 696.0
269 699.0 57.0
270 254.0 229.0
271 484.0 240.0
272 725.0 115.0
273 299.0 648.0
274 515.0 298.0
275 14.0 856.0
276 436.0 514.0
277 229.0 244.0
278 429.0 17.0
279 842.0 798.0
280 861.0 561.0
281 386.0 691.0
282 194.0 203.0
283 472.0 478.0
284 371.0 443.0
285 401.0 814.0
286 862.0 796.0
287 668.0 757.0
288 481.0 329.0
289 141.0 260.0
290 770.0 187.0
291 334.0 225.0
292 215.0 460.0
293 644.0 664.0
294 609.0 502.0
295 265.0 431.0
296 551.0 517.0
297 470.0 685.0
298 380.0 82.0
299 713.0 572.0
300 629.0 286.0
301 597.0 251.0
302 771.0 578.0
303 523.0 313.0
304 374.0 821.0
305 366.0 193.0
306 478.0 687.0
307 280.0 383.0
308 560.0 184.0
309 751.0 256.0
310 96.0 267.0
311 207.0 841.0
312 435.0 705.0
313 173.0 521.0
314 267.0 466.0
315 643.0 174.0
316 357.0 73.0
317 195.0 85.0
318 210.0 838.0
319 455.0 682.0
320 470.0 416.0
321 250.0 577.0
322 583.0 276.0
323 858.0 58.0
324 249.0 832.0
325 45.0 6.0
326 422.0 670.0
327 375.0 479.0
328 125.0 609.0
329 15.0 47.0
330 724.0 100.0
331 46.0 178.0
332 706.0 464.0
333 253.0 144.0
334 460.0 882.0
335 862.0 717.0
336 265.0 662.0
337 774.0 519.0
338 193.0 389.0
339 132.0 597.0
340 812.0 421.0
341 386.0 139.0
342 618.0 309.0
343 496.0 537.0
344 307.0 32.0
345 634.0 652.0
346 498.0 880.0
347 856.0 248.0
348 232.0 399.0
349 109.0 792.0
350 349.0 628.0
351 701.0 239.0
352 743.0 389.0
353 376.0 490.0
354 284.0 319.0
355 225.0 691.0
356 200.0 460.0
357 256.0 596.0
358 151.0 810.0
359 657.0 21.0
360 233.0 749.0
361 439.0 276.0
362 838.0 65.0
363 544.0 650.0
364 489.0 594.0
365 87.0 559.0
366 391.0 714.0
367 276.0 753.0
368 336.0 755.0
369 684.0 147.0
370 520.0 450.0
371 392.0 46.0
372 871.0 553.0
373 514.0 335.0
374 118.0 836.0
375 194.0 672.0
376 818.0 57.0
377 152.0 454.0
378 333.0 820.0
379 743.0 142.0
380 268.0 759.0
381 788.0 258.0
382 52.0 639.0
383 276.0 48.0
384 368.0 526.0
385 764.0 836.0
386 592.0 488.0
387 693.0 838.0
388 452.0 258.0
389 380.0 839.0
390 561.0 195.0
391 381.0 260.0
392 711.0 498.0
393 97.0 735.0
394 814.0 56.0
395 521.0 168.0
396 411.0 565.0
397 26.0 99.0
398 514.0 442.0
399 635.0 578.0
400 199.0 431.0
401 5.0 204.0
402 417.0 846.0
403 54.0 194.0
404 618.0 309.0
405 413.0 839.0
406 798.0 456.0
407 277.0 32.0
408 884.0 207.0
409 474.0 380.0
410 351.0 292.0
411 403.0 666.0
412 539.0 890.0
413 621.0 296.0
414 697.0 216.0
415 345.0 327.0
416 861.0 641.0
417 101.0 87.0
418 654.0 64.0
419 574.0 168.0
420 805.0 605.0
421 286.0 643.0
422 34.0 882.0
423 803.0 765.0
424 55.0 599.0
425 721.0 294.0
426 632.0 114.0
427 731.0 452.0
428 639.0 459.0
429 124.0 125.0
430 849.0 730.0
431 116.0 589.0
432 252.0 431.0
433 77.0 799.0
434 727.0 729.0
435 331.0 570.0
436 185.0 836.0
437 240.0 850.0
438 729.0 203.0
439 89.0 309.0
440 883.0 603.0
441 92.0 824.0
442 5.0 344.0
443 360.0 703.0
444 126.0 531.0
445 348.0 544.0
446 580.0 143.0
447 554.0 428.0
448 833.0 529.0
449 105.0 598.0
450 439.0 760.0
451 593.0 769.0
452 648.0 60.0
453 415.0 719.0
454 506.0 88.0
455 12.0 545.0
456 285.0 654.0
457 150.0 306.0
458 671.0 651.0
459 824.0 638.0
460 23.0 786.0
461 23.0 240.0
462 742.0 631.0
463 318.0 703.0
464 209.0 474.0
465 83.0 353.0
466 474.0 842.0
467 97.0 193.0
468 875.0 797.0
469 156.0 163.0
470 130.0 268.0
471 218.0 764.0
472 808.0 567.0
473 785.0 69.0
474 428.0 298.0
475 770.0 863.0
476 509.0 1.0
477 860.0 562.0
478 741.0 731.0
479 279.0 781.0
480 364.0 265.0
481 361.0 683.0
482 622.0 197.0
483 682.0 357.0
484 443.0 172.0
485 468.0 679.0
486 714.0 266.0
487 420.0 816.0
488 698.0 452.0
489 530.0 202.0
490 389.0 102.0
491 750.0 722.0
492 379.0 139.0
493 480.0 355.0
494 443.0 766.0
495 458.0 66.0
496 426.0 757.0
497 401.0 800.0
498 884.0 209.0
499 765.0 408.0
500 239.0 252.0
501 883.0 164.0
502 362.0 878.0
503 4.0 431.0
504 57.0 714.0
505 58.0 465.0
506 366.0 283.0
507 157.0 382.0
508 444.0 375.0
509 213.0 303.0
510 558.0 8.0
511 18.0 140.0
512 392.0 539.0
513 342.0 19.0
514 185.0 410.0
515 216.0 720.0
516 220.0 473.0
517 789.0 580.0
518 825.0 420.0
519 797.0 876.0
520 861.0 59.0
521 398.0 837.0
522 286.0 515.0
523 600.0 533.0
524 577.0 107.0
525 253.0 50.0
526 648.0 551.0
527 134.0 620.0
528 301.0 362.0
529 838.0 310.0
530 32.0 401.0
531 324.0 580.0
532 864.0 393.0
533 301.0 415.0
534 455.0 205.0
535 140.0 866.0
536 542.0 858.0
537 887.0 129.0
538 255.0 411.0
539 601.0 106.0
540 711.0 407.0
541 452.0 350.0
542 485.0 13.0
543 234.0 787.0
544 393.0 241.0
545 880.0 360.0
546 330.0 593.0
547 96.0 254.0
548 636.0 279.0
549 93.0 128.0
550 546.0 397.0
551 330.0 647.0
552 878.0 179.0
553 6.0 52.0
554 304.0 265.0
555 438.0 359.0
556 55.0 27.0
557 238.0 692.0
558 282.0 611.0
559 486.0 572.0
560 669.0 345.0
561 28.0 165.0
562 197.0 598.0
563 613.0 461.0
564 777.0 92.0
565 629.0 867.0
566 426.0 479.0
567 750.0 90.0
568 530.0 463.0
569 661.0 308.0
570 191.0 307.0
571 323.0 838.0
572 626.0 272.0
573 719.0 182.0
574 280.0 704.0
575 663.0 398.0
576 188.0 17.0
577 653.0 407.0
578 495.0 540.0
579 214.0 608.0
580 396.0 763.0
581 123.0 519.0
582 315.0 267.0
583 125.0 100.0
584 442.0 781.0
585 645.0 631.0
586 33.0 639.0
587 393.0 240.0
588 817.0 54.0
589 796.0 292.0
590 262.0 501.0
591 680.0 428.0
592 511.0 335.0
593 669.0 350.0
594 192.0 383.0
595 332.0 364.0
596 655.0 739.0
597 522.0 595.0
598 864.0 654.0
599 234.0 153.0
600 888.0 754.0
601 204.0 315.0
602 190.0 38.0
603 513.0 696.0
604 475.0 312.0
605 651.0 277.0
606 837.0 485.0
607 183.0 871.0
608 455.0 325.0
609 86.0 512.0
610 650.0 733.0
611 287.0 465.0
612 833.0 560.0
613 295.0 742.0
614 632.0 97.0
615 845.0 871.0
616 874.0 364.0
617 229.0 311.0
618 638.0 630.0
619 154.0 232.0
620 622.0 738.0
621 195.0 129.0
622 260.0 616.0
623 147.0 840.0
624 333.0 234.0
625 291.0 500.0
626 718.0 79.0
627 647.0 637.0
628 5.0 817.0
629 853.0 803.0
630 129.0 475.0
631 130.0 127.0
632 661.0 555.0
633 591.0 313.0
634 136.0 508.0
635 540.0 398.0
636 3.0 278.0
637 242.0 129.0
638 821.0 367.0
639 35.0 431.0
640 516.0 161.0
641 780.0 418.0
642 101.0 721.0
643 759.0 442.0
644 410.0 807.0
645 158.0 377.0
646 15.0 302.0
647 743.0 576.0
648 79.0 595.0
649 387.0 789.0
650 561.0 254.0
651 279.0 232.0
652 174.0 754.0
653 782.0 19.0
654 323.0 159.0
655 238.0 7.0
656 627.0 293.0
657 462.0 716.0
658 749.0 459.0
659 630.0 657.0
660 346.0 496.0
661 9.0 97.0
662 503.0 359.0
663 690.0 15.0
664 24.0 252.0
665 665.0 253.0
666 279.0 108.0
667 58.0 117.0
668 519.0 61.0
669 168.0 537.0
670 765.0 150.0
671 793.0 886.0
672 733.0 113.0
673 795.0 890.0
674 419.0 148.0
675 656.0 31.0
676 748.0 331.0
677 405.0 84.0
678 686.0 424.0
679 84.0 227.0
680 86.0 823.0
681 327.0 582.0
682 117.0 527.0
683 767.0 705.0
684 834.0 347.0
685 758.0 774.0
686 344.0 668.0
687 117.0 546.0
688 91.0 187.0
689 742.0 215.0
690 517.0 174.0
691 486.0 204.0
692 191.0 214.0
693 480.0 640.0
694 769.0 524.0
695 193.0 371.0
696 138.0 87.0
697 434.0 833.0
698 99.0 53.0
699 374.0 683.0
700 574.0 715.0
701 102.0 39.0
702 92.0 327.0
703 319.0 523.0
704 689.0 675.0
705 786.0 313.0
706 498.0 589.0
707 248.0 427.0
708 738.0 397.0
709 568.0 559.0
710 841.0 221.0
711 873.0 798.0
712 441.0 506.0
713 442.0 256.0
714 84.0 165.0
715 231.0 159.0
716 427.0 730.0
717 760.0 828.0
718 435.0 455.0
719 88.0 318.0
720 712.0 330.0
721 529.0 406.0
722 212.0 415.0
723 688.0 233.0
724 882.0 513.0
725 660.0 626.0
726 357.0 534.0
727 158.0 484.0
728 482.0 867.0
729 557.0 821.0
730 383.0 715.0
731 357.0 207.0
732 287.0 514.0
733 96.0 855.0
734 223.0 537.0
735 492.0 201.0
736 49.0 822.0
737 516.0 790.0
738 619.0 877.0
739 666.0 359.0
740 55.0 12.0
741 725.0 429.0
742 55.0 390.0
743 806.0 211.0
744 607.0 48.0
745 578.0 181.0
746 844.0 478.0
747 884.0 763.0
748 668.0 570.0
749 218.0 22.0
750 842.0 623.0
751 401.0 854.0
752 406.0 140.0
753 398.0 718.0
754 98.0 739.0
755 263.0 287.0
756 684.0 780.0
757 103.0 209.0
758 456.0 395.0
759 806.0 658.0
760 162.0 174.0
761 468.0 729.0
762 398.0 372.0
763 556.0 200.0
764 339.0 366.0
765 428.0 191.0
766 830.0 598.0
767 759.0 844.0
768 763.0 503.0
769 634.0 890.0
770 823.0 677.0
771 323.0 435.0
772 536.0 887.0
773 265.0 32.0
774 86.0 651.0
775 549.0 597.0
776 237.0 645.0
777 526.0 547.0
778 99.0 858.0
779 804.0 391.0
780 295.0 780.0
781 677.0 520.0
782 331.0 432.0
783 72.0 315.0
784 595.0 498.0
785 126.0 265.0
786 757.0 487.0
787 731.0 151.0
788 782.0 361.0
789 161.0 629.0
790 398.0 571.0
791 858.0 697.0
792 527.0 545.0
793 675.0 433.0
794 675.0 851.0
795 168.0 450.0
796 138.0 51.0
797 671.0 315.0
798 578.0 520.0
799 121.0 582.0
800 326.0 114.0
801 403.0 265.0
802 136.0 733.0
803 484.0 869.0
804 677.0 355.0
805 42.0 821.0
806 142.0 622.0
807 249.0 555.0
808 312.0 368.0
809 674.0 175.0
810 821.0 116.0
811 225.0 181.0
812 396.0 51.0
813 841.0 215.0
814 887.0 572.0
815 163.0 201.0
816 828.0 470.0
817 622.0 531.0
818 20.0 159.0
819 825.0 804.0
820 533.0 556.0
821 476.0 369.0
822 29.0 252.0
823 567.0 601.0
824 221.0 715.0
825 472.0 827.0
826 555.0 650.0
827 324.0 605.0
828 747.0 145.0
829 386.0 182.0
830 614.0 119.0
831 525.0 230.0
832 33.0 189.0
833 147.0 43.0
834 363.0 718.0
835 836.0 613.0
836 445.0 633.0
837 234.0 386.0
838 753.0 171.0
839 666.0 461.0
840 551.0 47.0
841 488.0 228.0
842 225.0 392.0
843 93.0 409.0
844 667.0 445.0
845 689.0 291.0
846 463.0 287.0
847 89.0 824.0
848 430.0 97.0
849 280.0 819.0
850 744.0 307.0
851 437.0 621.0
852 88.0 93.0
853 128.0 182.0
854 221.0 771.0
855 821.0 59.0
856 771.0 566.0
857 618.0 859.0
858 693.0 484.0
859 201.0 120.0
860 742.0 11.0
861 318.0 453.0
862 826.0 226.0
863 157.0 685.0
864 220.0 637.0
865 591.0 125.0
866 634.0 408.0
867 593.0 153.0
868 394.0 305.0
869 879.0 541.0
870 231.0 198.0
871 442.0 605.0
872 139.0 512.0
873 44.0 179.0
874 342.0 750.0
875 226.0 668.0
876 620.0 674.0
877 155.0 268.0
878 295.0 594.0
879 799.0 434.0
880 365.0 815.0
881 545.0 578.0
882 740.0 854.0
883 549.0 400.0
884 733.0 281.0
885 426.0 411.0
886 440.0 417.0
887 820.0 517.0
888 319.0 612.0
889 825.0 638.0
890 30.0 459.0
EOF





